data/fixedSmallCapacity.dat
n = 4;
K = 3;
capacity = [10.0,10.0,10.0];
nodeInfo = [
<0,0,100,0>
<6,0,100,4>
<3,0,100,2>
<2,0,100,2>
<1,0,100,0>
<-6,0,100,1>
<-3,0,100,3>
<-2,0,100,0>
<-1,0,100,3>
<0,0,100,0>
];
X = [20,21,17,18,19,21,21,21,23,20];
Y = [20,21,21,19,18,19,23,17,19,20];
membership = [1,1,1,1,1,1,1,1,1,1];
