fixedSmallCapacity.txt
Vehicle 0 with capacity 10.0
	Node 0
		Load 0.0
		Time 0.0
		Delay 0.0
			Time Window [0, 100]
			Load at node 0
			Service time at node 0
	Cost between 0.0
	Node 9
		Load 0.0
		Time 0.0
		Delay 0.0
			Time Window [0, 100]
			Load at node 0
			Service time at node 0
Vehicle 1 with capacity 10.0
	Node 0
		Load 0.0
		Time 0.0
		Delay 0.0
			Time Window [0, 100]
			Load at node 0
			Service time at node 0
	Cost between 2.23606797749979
	Node 4
		Load 1.0
		Time 2.236067977499218
		Delay 0.0
			Time Window [0, 100]
			Load at node 1
			Service time at node 0
	Cost between 1.4142135623730951
	Node 3
		Load 3.0
		Time 3.6502815388725516
		Delay 0.0
			Time Window [0, 100]
			Load at node 2
			Service time at node 2
	Cost between 2.23606797749979
	Node 2
		Load 5.999999999
		Time 7.886349515371808
		Delay 0.0
			Time Window [0, 100]
			Load at node 3
			Service time at node 2
	Cost between 4.47213595499958
	Node 6
		Load 2.999999998
		Time 14.358485470371388
		Delay 0.0
			Time Window [0, 100]
			Load at node -3
			Service time at node 3
	Cost between 2.0
	Node 1
		Load 4.999999997
		Time 19.358485471585503
		Delay 0.0
			Time Window [0, 100]
			Load at node 2
			Service time at node 4
	Cost between 2.8284271247461903
	Node 8
		Load 3.9999999959999997
		Time 26.186912592118052
		Delay 0.0
			Time Window [0, 100]
			Load at node -1
			Service time at node 3
	Cost between 2.8284271247461903
	Node 7
		Load 1.9999999949999996
		Time 32.01533971586473
		Delay 0.0
			Time Window [0, 100]
			Load at node -2
			Service time at node 0
	Cost between 2.0
	Node 5
		Load 0.0
		Time 34.01533971486472
		Delay 0.0
			Time Window [0, 100]
			Load at node -2
			Service time at node 1
	Cost between 1.4142135623730951
	Node 9
		Load 0.0
		Time 36.42955327623807
		Delay 0.0
			Time Window [0, 100]
			Load at node 0
			Service time at node 0
Vehicle 2 with capacity 3.0
	Node 0
		Load 0.0
		Time 0.0
		Delay 0.0
			Time Window [0, 100]
			Load at node 0
			Service time at node 0
	Cost between 0.0
	Node 9
		Load 0.0
		Time 0.0
		Delay 0.0
			Time Window [0, 100]
			Load at node 0
			Service time at node 0
